[2026-03-01T19:55:40] Logging to: /run/media/saveas/Secondary-Storage/Masters/CS234/CS234_Reinforcement_Learning/Final Project/CS234_Final_Project/results/trajectory_optimization/nlp/TRACK3_300m/N200/run_trajopt_demo_output.log
======================================================================
IPOPT TRAJECTORY OPTIMIZATION DEMO (SINGLE STAGE)
======================================================================

1. Loading track: /run/media/saveas/Secondary-Storage/Masters/CS234/CS234_Reinforcement_Learning/Final Project/CS234_Final_Project/maps/TRACK3_300m.mat
   Track length: 300.0 m

2. Creating vehicle model...
   Vehicle: SingleTrackModel(VW_Golf_GTI, weight_transfer=enabled)

3. Loaded obstacles from map: 0

4. Setup:
   N = 200
   ds = 1.50 m
   Obstacle subsamples/segment = 7
   Obstacle enforce midpoints = False
   Obstacle use slack = False
   Track buffer = 0.00 m
   lambda_u = 0.005
   vehicle_radius_m = 0.00
   eps_s = 0.100, eps_kappa = 0.050
   Solver path = Python/CasADi (IPOPT)

======================================================================
SINGLE STAGE: COMBINED OBJECTIVE (ACCEPTANCE-GATED)
======================================================================
Acceptance gates: success=True, max_slack<=0.000e+00, min_clearance>=-0.0010 m
Acceptance policy: practical epsilon mode (allows tiny negative dense clearance).
Initializer: obstacle_aware_init=True, sigma=8.00 m, margin=0.30 m

Attempt 1/4: baseline
  N=200, ds=1.500 m, subsamples=7, obstacle_clearance_m=0.000
Exception of type: DYNAMIC_LIBRARY_FAILURE in file "Common/IpLibraryLoader.cpp" at line 72:
 Exception message: libhsl.so: cannot open shared object file: No such file or directory

EXIT: Library loading failure.
      solver  :   t_proc      (avg)   t_wall      (avg)    n_eval
       total  | 356.00us (356.00us) 358.19us (358.19us)         1
Solver failed with ipopt.linear_solver=ma57: Error in Opti::solve [OptiNode] at .../casadi/core/optistack.cpp:217:
.../casadi/core/optistack_internal.cpp:1338: Assertion "return_success(accept_limit)" failed:
Solver failed. You may use opti.debug.value to investigate the latest values of variables. return_status is 'Invalid_Option'
Retrying with IPOPT default linear solver.

******************************************************************************
This program contains Ipopt, a library for large-scale nonlinear optimization.
 Ipopt is released as open source code under the Eclipse Public License (EPL).
         For more information visit https://github.com/coin-or/Ipopt
******************************************************************************

This is Ipopt version 3.14.11, running with linear solver MUMPS 5.4.1.

Number of nonzeros in equality constraint Jacobian...:    22019
Number of nonzeros in inequality constraint Jacobian.:     2412
Number of nonzeros in Lagrangian Hessian.............:     8440

Total number of variables............................:     2010
                     variables with only lower bounds:        0
                variables with lower and upper bounds:        0
                     variables with only upper bounds:        0
Total number of equality constraints.................:     1610
Total number of inequality constraints...............:     1809
        inequality constraints with only lower bounds:     1206
   inequality constraints with lower and upper bounds:        0
        inequality constraints with only upper bounds:      603

iter    objective    inf_pr   inf_du lg(mu)  ||d||  lg(rg) alpha_du alpha_pr  ls
   0  3.0000000e+01 4.34e-01 1.05e+00  -1.0 0.00e+00    -  0.00e+00 0.00e+00   0
   1  2.9962177e+01 3.81e-01 1.15e+02  -1.0 8.92e+00   2.0 6.64e-01 1.25e-01h  4
   2  2.9957007e+01 3.57e-01 1.13e+03  -1.0 7.89e+00   3.3 8.33e-01 6.25e-02h  5
   3  2.9956735e+01 3.46e-01 1.16e+04  -1.0 7.46e+00   4.7 1.00e+00 3.12e-02h  6
   4  2.9957994e+01 3.35e-01 3.87e+04  -1.0 7.29e+00   5.1 1.00e+00 3.12e-02h  6
   5  2.9962666e+01 3.14e-01 1.76e+05  -1.0 7.03e+00   5.5 1.00e+00 6.25e-02h  5
   6  2.9971234e+01 2.95e-01 5.09e+05  -1.0 6.46e+00   5.9 1.00e+00 6.25e-02h  5
   7  2.9982462e+01 2.77e-01 1.32e+06  -1.0 5.88e+00   6.4 1.00e+00 6.25e-02h  5
   8  3.0004995e+01 2.59e-01 1.49e+06  -1.0 5.59e+00   5.9 1.00e+00 6.25e-02h  5
   9  3.0039956e+01 2.64e-01 2.58e+06  -1.0 5.05e+00   6.3 1.00e+00 1.25e-01h  4
iter    objective    inf_pr   inf_du lg(mu)  ||d||  lg(rg) alpha_du alpha_pr  ls
  10  3.0094665e+01 4.11e-01 2.61e+06  -1.0 4.26e+00   5.8 1.00e+00 1.01e-01h  4
  11  3.0390692e+01 2.10e+00 2.52e+07  -1.0 3.67e+00   6.3 1.00e+00 8.35e-01w  1
  12  3.0486060e+01 5.15e+00 1.78e+07  -1.0 4.70e-01   6.7 3.65e-01 1.00e+00w  1
  13  3.0490939e+01 3.12e+00 1.53e+07  -1.0 2.78e+00   6.2 4.87e-01 2.41e-01h  1
  14  3.0518667e+01 2.34e+00 1.81e+08  -1.0 6.98e-01   6.6 3.34e-03 1.00e+00f  1
  15  3.0527559e+01 1.07e+00 2.53e+08  -1.0 1.09e+00   7.1 1.00e+00 1.00e+00h  1
  16  3.0542391e+01 9.03e-01 2.33e+07  -1.0 2.52e-01   6.6 2.86e-01 1.00e+00h  1
  17  3.0555416e+01 9.39e-02 6.93e+06  -1.0 4.78e-01   6.1 1.00e+00 1.00e+00h  1
  18  3.0556439e+01 5.99e-04 2.17e+05  -1.0 3.85e-02   5.6 1.00e+00 1.00e+00h  1
  19  3.0556440e+01 5.91e-08 5.17e+01  -1.0 4.28e-05   5.2 1.00e+00 1.00e+00h  1
iter    objective    inf_pr   inf_du lg(mu)  ||d||  lg(rg) alpha_du alpha_pr  ls
  20  3.0556440e+01 9.23e-11 1.60e-01  -1.0 3.38e-06   4.7 1.00e+00 1.00e+00h  1
  21  3.0556439e+01 8.27e-12 9.49e-03  -2.5 6.02e-07   4.2 1.00e+00 1.00e+00h  1
  22  3.0556438e+01 5.48e-11 8.24e-03  -3.8 1.57e-06   3.7 1.00e+00 1.00e+00h  1
  23  3.0556433e+01 4.93e-10 8.24e-03  -3.8 4.70e-06   3.2 1.00e+00 1.00e+00h  1
  24  3.0556419e+01 4.44e-09 8.24e-03  -3.8 1.41e-05   2.8 1.00e+00 1.00e+00h  1
  25  3.0556377e+01 3.99e-08 8.24e-03  -3.8 4.23e-05   2.3 1.00e+00 1.00e+00h  1
  26  3.0556250e+01 3.58e-07 8.24e-03  -3.8 1.27e-04   1.8 1.00e+00 1.00e+00h  1
  27  3.0555868e+01 3.19e-06 8.23e-03  -3.8 3.81e-04   1.3 1.00e+00 1.00e+00h  1
  28  3.0554725e+01 2.78e-05 8.23e-03  -3.8 1.14e-03   0.9 1.00e+00 1.00e+00h  1
  29  3.0551303e+01 2.28e-04 8.21e-03  -3.8 3.42e-03   0.4 1.00e+00 1.00e+00h  1
iter    objective    inf_pr   inf_du lg(mu)  ||d||  lg(rg) alpha_du alpha_pr  ls
  30  3.0541094e+01 1.57e-03 8.35e-03  -3.8 1.04e-02  -0.1 1.00e+00 1.00e+00h  1
  31  3.0510955e+01 6.60e-03 8.79e-03  -3.8 3.29e-02  -0.6 1.00e+00 1.00e+00h  1
  32  3.0422927e+01 7.89e-02 9.40e-03  -3.8 1.06e-01  -1.1 1.00e+00 1.00e+00h  1
  33  3.0172168e+01 1.13e+00 4.86e-02  -3.8 3.09e-01  -1.5 1.00e+00 1.00e+00h  1
  34  2.9459380e+01 2.38e-01 1.85e-02  -3.8 8.89e-01  -2.0 1.00e+00 1.00e+00h  1
  35  2.7578262e+01 2.84e+00 1.74e-02  -3.8 2.46e+00  -2.5 1.00e+00 1.00e+00h  1
  36  2.7329037e+01 1.45e+00 1.24e-02  -3.8 2.17e+00  -2.1 7.44e-01 5.01e-01h  1
  37  2.6947848e+01 1.20e+00 1.17e-02  -3.8 2.43e+00  -2.5 4.32e-01 2.37e-01h  1
  38  2.5416122e+01 3.60e+00 1.64e-02  -3.8 8.74e+00  -3.0 3.34e-01 3.76e-01h  1
  39  2.5285926e+01 3.25e+00 3.51e-02  -3.8 4.27e+00  -2.6 1.00e+00 1.00e-01h  1
iter    objective    inf_pr   inf_du lg(mu)  ||d||  lg(rg) alpha_du alpha_pr  ls
  40  2.4370866e+01 2.50e+00 1.82e-02  -3.8 8.16e+00  -3.1 1.00e+00 2.65e-01h  1
  41  2.4108471e+01 2.03e+00 1.77e-02  -3.8 4.84e+00  -2.6 5.83e-01 2.10e-01h  1
  42  2.3903116e+01 1.92e+00 9.15e-03  -3.8 1.92e+00  -2.2 5.76e-01 4.98e-01h  1
  43  2.3892813e+01 1.70e+00 8.20e-03  -3.8 2.25e+00  -1.8 2.23e-01 1.15e-01h  1
  44  2.3780760e+01 1.27e+00 2.66e-02  -3.8 2.15e+00  -2.3 1.00e+00 2.60e-01h  1
  45  2.3739980e+01 8.71e-01 2.09e-02  -3.8 1.45e+00  -1.8 1.00e+00 3.19e-01h  1
  46  2.3723205e+01 5.99e-01 5.35e-02  -3.8 9.76e-01  -1.4 1.00e+00 6.84e-01h  1
  47  2.3716582e+01 2.20e-01 5.66e-02  -3.8 5.44e-01  -1.0 1.00e+00 1.00e+00h  1
  48  2.3706229e+01 1.77e-02 1.84e-02  -3.8 5.25e-02  -0.6 1.00e+00 1.00e+00h  1
  49  2.3675010e+01 2.51e-03 6.42e-03  -3.8 5.48e-02  -1.0 1.00e+00 1.00e+00h  1
iter    objective    inf_pr   inf_du lg(mu)  ||d||  lg(rg) alpha_du alpha_pr  ls
  50  2.3582165e+01 1.35e-02 4.91e-03  -3.8 1.59e-01  -1.5 1.00e+00 1.00e+00h  1
  51  2.3312409e+01 1.86e-01 6.52e-03  -3.8 5.21e-01  -2.0 1.00e+00 1.00e+00h  1
  52  2.3215805e+01 2.87e-01 1.25e-02  -3.8 2.17e-01  -1.6 1.00e+00 1.00e+00h  1
  53  2.2983049e+01 6.80e-01 5.60e-03  -3.8 6.46e-01  -2.0 1.00e+00 8.15e-01h  1
  54  2.2756823e+01 4.95e-01 1.80e-02  -3.8 1.58e+00  -2.5 1.00e+00 3.09e-01h  1
  55  2.2545408e+01 1.33e-01 5.37e-03  -3.8 7.96e-01  -2.1 1.00e+00 7.91e-01h  1
  56  2.2510818e+01 9.25e-02 1.17e-02  -3.8 2.43e-01  -1.7 1.00e+00 3.69e-01h  1
  57  2.2239112e+01 1.46e+00 1.26e-02  -3.8 5.26e-01  -2.1 1.00e+00 1.00e+00h  1
  58  2.1891991e+01 1.76e+00 2.08e-02  -3.8 3.45e+00  -2.6 1.00e+00 4.69e-01h  1
  59  2.1771904e+01 9.25e-01 1.92e-02  -3.8 1.76e+00  -2.2 9.30e-01 5.13e-01h  1
iter    objective    inf_pr   inf_du lg(mu)  ||d||  lg(rg) alpha_du alpha_pr  ls
  60  2.1500693e+01 5.68e-01 2.41e-02  -3.8 2.37e+00  -2.7 1.00e+00 4.18e-01h  1
  61  2.1356232e+01 3.97e-01 1.11e-02  -3.8 1.17e+00  -2.2 1.00e+00 6.34e-01h  1
  62  2.1278069e+01 1.84e+00 3.45e-02  -3.8 8.93e-01  -1.8 4.89e-01 8.78e-01h  1
  63  2.1148112e+01 8.32e-01 3.31e-02  -3.8 1.39e+00  -2.3 1.00e+00 5.60e-01h  1
  64  2.0789861e+01 2.50e+00 2.51e-02  -3.8 3.99e+00  -2.8 1.00e+00 5.46e-01h  1
  65  2.0723047e+01 1.70e+00 1.92e-02  -3.8 2.17e+00  -2.3 1.00e+00 3.30e-01h  1
  66  2.0724837e+01 1.39e+00 5.58e-02  -3.8 1.37e+00  -1.0 1.25e-01 1.83e-01h  1
  67  2.0712422e+01 5.65e-01 2.17e-01  -3.8 1.28e+00  -1.5 9.75e-01 1.00e+00h  1
  68  2.0637067e+01 1.65e-01 5.12e-02  -3.8 2.80e-01  -2.0 1.00e+00 8.07e-01h  1
  69  2.0603882e+01 9.13e-03 3.09e-03  -3.8 1.08e-01  -1.5 1.00e+00 1.00e+00h  1
iter    objective    inf_pr   inf_du lg(mu)  ||d||  lg(rg) alpha_du alpha_pr  ls
  70  2.0537911e+01 8.37e-02 4.05e-03  -3.8 3.02e-01  -2.0 1.00e+00 6.84e-01h  1
  71  2.0277349e+01 1.48e+00 1.14e-02  -3.8 9.43e-01  -2.5 1.00e+00 1.00e+00f  1
  72  2.0211448e+01 1.23e+00 6.94e-03  -3.8 8.59e-01  -2.1 7.75e-01 7.22e-01h  1
  73  2.0190325e+01 8.01e-02 2.84e-02  -3.8 1.05e+00  -1.6 5.68e-01 9.84e-01h  1
  74  2.0121180e+01 4.18e-02 8.04e-03  -3.8 3.91e-01  -2.1 1.00e+00 7.50e-01f  1
  75  1.9923933e+01 6.14e-01 1.18e-02  -3.8 1.34e+00  -2.6 1.00e+00 7.78e-01f  1
  76  1.9915502e+01 5.07e-01 2.62e-01  -3.8 4.20e-01  -1.3 6.99e-01 1.00e+00h  1
  77  1.9884679e+01 1.39e-01 3.13e-02  -3.8 5.46e-01  -1.7 1.00e+00 1.00e+00h  1
  78  1.9777735e+01 1.98e+00 1.44e-01  -3.8 2.01e+00  -2.2 7.68e-01 9.08e-01h  1
  79  1.9783026e+01 1.52e+00 4.57e-01  -3.8 1.36e+00   0.0 2.12e-03 2.34e-01h  1
iter    objective    inf_pr   inf_du lg(mu)  ||d||  lg(rg) alpha_du alpha_pr  ls
  80  1.9789841e+01 9.72e-01 3.50e-01  -3.8 1.22e+00  -0.5 2.58e-01 3.63e-01h  1
  81  1.9797774e+01 1.72e-01 3.07e-01  -3.8 9.49e-01  -0.9 6.68e-01 1.00e+00h  1
  82  1.9795541e+01 1.66e-02 1.58e-02  -3.8 5.29e-02  -0.5 1.00e+00 1.00e+00h  1
  83  1.9789047e+01 1.42e-03 2.34e-03  -3.8 2.34e-02  -1.0 1.00e+00 1.00e+00h  1
  84  1.9770689e+01 7.13e-03 2.32e-03  -3.8 6.98e-02  -1.5 1.00e+00 1.00e+00h  1
  85  1.9724160e+01 3.86e-02 2.30e-03  -3.8 2.07e-01  -2.0 1.00e+00 1.00e+00h  1
  86  1.9622925e+01 2.51e-01 3.06e-03  -3.8 6.12e-01  -2.4 1.00e+00 8.31e-01h  1
  87  1.9583061e+01 2.40e-01 3.60e-03  -3.8 2.39e-01  -2.0 1.00e+00 1.00e+00h  1
  88  1.9467066e+01 2.64e-01 2.18e-03  -3.8 6.61e-01  -2.5 1.00e+00 1.00e+00h  1
  89  1.9429335e+01 2.09e-01 4.84e-03  -3.8 2.55e-01  -2.1 1.00e+00 1.00e+00h  1
iter    objective    inf_pr   inf_du lg(mu)  ||d||  lg(rg) alpha_du alpha_pr  ls
  90  1.9317569e+01 1.10e+00 7.57e-03  -3.8 8.79e-01  -2.5 1.00e+00 1.00e+00h  1
  91  1.9290995e+01 7.37e-01 8.12e-03  -3.8 7.74e-01  -2.1 1.00e+00 1.00e+00h  1
  92  1.9199745e+01 2.93e-01 3.80e-03  -3.8 8.18e-01  -2.6 1.00e+00 1.00e+00h  1
  93  1.8996830e+01 1.19e+00 2.08e-02  -3.8 2.16e+00  -3.1 6.45e-01 9.50e-01h  1
  94  1.8952008e+01 9.09e-01 2.80e-02  -3.8 1.16e+00  -2.6 1.00e+00 1.00e+00h  1
  95  1.8954327e+01 9.79e-01 8.73e-01  -3.8 2.76e-01  -0.4 1.00e+00 1.00e+00h  1
  96  1.8956195e+01 8.99e-01 6.49e-01  -3.8 1.47e+00   0.0 9.24e-01 7.25e-02H  1
  97  1.8960278e+01 9.48e-01 2.72e-01  -3.8 2.81e-01  -0.5 1.00e+00 1.00e+00h  1
  98  1.8960690e+01 1.06e+00 4.11e+00  -3.8 1.66e-01  -0.0 1.00e+00 1.00e+00h  1
  99  1.8960167e+01 5.92e-01 5.81e+00  -3.8 1.56e-01   1.3 1.00e+00 1.00e+00h  1
iter    objective    inf_pr   inf_du lg(mu)  ||d||  lg(rg) alpha_du alpha_pr  ls
 100  1.8961236e+01 4.42e-01 1.02e+01  -3.8 1.46e-01   1.7 1.00e+00 1.00e+00h  1
 101  1.8961365e+01 4.16e-01 2.73e+00  -3.8 1.29e-01   1.2 1.00e+00 1.00e+00h  1
 102  1.8961729e+01 3.29e-01 3.31e-01  -3.8 1.32e-01   0.8 1.00e+00 7.78e-01h  1
 103  1.8961324e+01 4.42e-01 1.92e-01  -3.8 9.73e-02   0.3 9.18e-01 1.00e+00h  1
 104  1.8961750e+01 4.39e-01 3.63e-01  -3.8 1.87e-01  -0.2 6.32e-01 1.00e+00h  1
 105  1.8960167e+01 4.94e-01 1.70e-01  -3.8 1.06e-01  -0.7 1.00e+00 1.00e+00h  1
 106  1.8956197e+01 1.09e-01 2.50e-01  -3.8 1.01e-01  -1.1 1.00e+00 1.00e+00h  1
 107  1.8950347e+01 6.57e-02 8.58e-03  -3.8 7.77e-02  -1.6 1.00e+00 8.08e-01h  1
 108  1.8934479e+01 1.55e-01 6.90e-02  -3.8 2.32e-01  -2.1 1.00e+00 1.00e+00h  1
 109  1.8891860e+01 1.75e-01 1.19e-02  -3.8 6.62e-01  -2.6 1.00e+00 1.00e+00h  1
iter    objective    inf_pr   inf_du lg(mu)  ||d||  lg(rg) alpha_du alpha_pr  ls
 110  1.8891998e+01 9.03e-02 6.66e-03  -3.8 4.43e-02  -1.2 1.00e+00 1.00e+00h  1
 111  1.8886133e+01 1.57e-01 5.21e-02  -3.8 2.09e-01  -1.7 1.00e+00 1.00e+00h  1
 112  1.8777886e+01 9.73e-01 3.13e-02  -3.8 2.17e+01    -  2.70e-01 1.45e-01h  1
 113  1.8767254e+01 2.53e+00 3.34e-02  -3.8 2.75e+02    -  2.01e-02 9.30e-03h  1
 114  1.8771766e+01 2.93e+00 3.83e-01  -3.8 1.30e+00  -1.3 8.25e-01 6.77e-01h  1
 115  1.8768860e+01 1.06e+00 1.01e+00  -3.8 1.72e+00  -1.8 1.00e+00 1.00e+00h  1
 116  1.8768812e+01 2.55e+00 3.75e-01  -3.8 9.66e-01  -1.3 9.79e-01 1.00e+00H  1
 117  1.8765855e+01 1.33e+00 2.19e-01  -3.8 2.35e+00  -1.8 1.00e+00 4.67e-01h  1
 118  1.8765013e+01 1.00e+00 1.70e+01  -3.8 6.31e-01   0.4 1.00e+00 7.75e-01H  1
 119  1.8765644e+01 7.95e-01 6.18e+00  -3.8 2.83e-01  -0.1 1.00e+00 1.00e+00h  1
iter    objective    inf_pr   inf_du lg(mu)  ||d||  lg(rg) alpha_du alpha_pr  ls
 120  1.8765510e+01 2.37e-01 1.14e+00  -3.8 7.49e-02  -0.5 9.21e-01 1.00e+00h  1
 121  1.8764831e+01 8.93e-03 1.56e-01  -3.8 5.37e-02  -1.0 1.00e+00 1.00e+00h  1
 122  1.8763001e+01 1.61e-03 1.80e-03  -3.8 5.05e-02  -1.5 1.00e+00 1.00e+00h  1
 123  1.8757581e+01 7.89e-03 1.59e-03  -3.8 1.49e-01  -2.0 1.00e+00 1.00e+00h  1
 124  1.8742544e+01 2.56e-02 1.55e-03  -3.8 4.35e-01  -2.4 1.00e+00 1.00e+00h  1
 125  1.8705666e+01 1.22e-01 2.47e-03  -3.8 1.22e+00  -2.9 1.00e+00 1.00e+00h  1
 126  1.8695801e+01 4.82e-02 2.51e-03  -3.8 4.57e-01  -2.5 1.00e+00 1.00e+00h  1
 127  1.8666822e+01 1.53e-01 1.66e-03  -3.8 1.26e+00  -3.0 1.00e+00 1.00e+00h  1
 128  1.8658371e+01 3.30e-01 1.32e-03  -3.8 4.70e-01  -2.6 1.00e+00 1.00e+00h  1
 129  1.8655375e+01 7.15e-02 1.61e-02  -3.8 2.03e-01  -2.1 1.00e+00 1.00e+00h  1
iter    objective    inf_pr   inf_du lg(mu)  ||d||  lg(rg) alpha_du alpha_pr  ls
 130  1.8654204e+01 5.80e-03 3.05e-03  -3.8 6.47e-02  -1.7 1.00e+00 1.00e+00h  1
 131  1.8650610e+01 5.91e-03 1.27e-03  -3.8 1.91e-01  -2.2 1.00e+00 1.00e+00h  1
 132  1.8580859e+01 4.84e-01 6.57e-03  -3.8 2.51e+01    -  3.26e-01 2.97e-01h  1
 133  1.8582986e+01 2.53e-01 1.63e-02  -3.8 5.06e-01  -2.7 1.00e+00 1.00e+00h  1
 134  1.8581619e+01 6.49e-02 5.97e-03  -3.8 1.94e-01  -2.2 1.00e+00 1.00e+00h  1
 135  1.8580999e+01 4.51e-03 9.62e-04  -3.8 6.01e-02  -1.8 1.00e+00 1.00e+00h  1
 136  1.8524502e+01 3.15e-01 2.43e-02  -3.8 2.88e+01    -  6.95e-01 5.62e-01h  1
 137  1.8524791e+01 4.40e-01 3.23e-02  -3.8 7.17e+00    -  3.66e-01 1.56e-01h  2
 138  1.8533197e+01 1.90e-01 1.32e-01  -3.8 3.53e-01  -2.3 3.06e-01 1.00e+00h  1
 139  1.8526322e+01 1.30e-01 8.25e-02  -3.8 1.64e+01    -  1.00e+00 3.90e-01h  1
iter    objective    inf_pr   inf_du lg(mu)  ||d||  lg(rg) alpha_du alpha_pr  ls
 140  1.8526705e+01 1.01e-01 1.73e-01  -3.8 1.97e+00  -1.9 1.82e-01 2.24e-01h  1
 141  1.8526927e+01 1.34e-02 2.71e-02  -3.8 1.80e-01  -2.3 9.74e-01 1.00e+00h  1
 142  1.8526641e+01 2.52e-02 8.91e-04  -3.8 2.95e-01  -2.8 1.00e+00 1.00e+00h  1
 143  1.8526525e+01 5.09e-03 6.26e-04  -3.8 8.73e-02  -2.4 1.00e+00 1.00e+00h  1
 144  1.8526048e+01 1.08e-01 9.80e-04  -3.8 2.12e-01  -2.9 1.00e+00 1.00e+00h  1
 145  1.8524195e+01 7.05e-01 7.67e-03  -3.8 1.33e+00  -3.3 1.00e+00 1.00e+00h  1
 146  1.8524790e+01 1.38e+00 1.06e-01  -3.8 5.64e-01  -1.1 3.36e-01 1.00e+00h  1
 147  1.8524639e+01 5.16e-01 2.81e-01  -3.8 3.60e-01  -1.6 1.00e+00 1.00e+00h  1
 148  1.8523957e+01 1.60e-01 4.59e-02  -3.8 1.75e-01  -2.1 1.00e+00 1.00e+00h  1
 149  1.8523596e+01 6.51e-02 2.96e-03  -3.8 1.07e-01  -2.5 1.00e+00 1.00e+00h  1
iter    objective    inf_pr   inf_du lg(mu)  ||d||  lg(rg) alpha_du alpha_pr  ls
 150  1.8521001e+01 2.93e-02 1.58e-03  -3.8 1.19e+00    -  1.00e+00 1.00e+00H  1
 151  1.8521597e+01 1.14e-02 3.42e-04  -3.8 2.03e-01    -  1.00e+00 1.00e+00h  1
 152  1.8521564e+01 3.50e-04 6.81e-05  -3.8 9.57e-03    -  1.00e+00 1.00e+00h  1
 153  1.8510079e+01 1.02e-01 8.33e-03  -5.7 8.05e-01    -  9.24e-01 6.28e-01h  1
 154  1.8505746e+01 4.45e-02 4.43e-03  -5.7 9.11e-01    -  7.65e-01 5.63e-01h  1
 155  1.8503715e+01 1.90e-02 4.48e-03  -5.7 2.76e-01    -  1.00e+00 6.66e-01h  1
 156  1.8502808e+01 8.68e-03 2.35e-04  -5.7 8.84e-02    -  1.00e+00 1.00e+00h  1
 157  1.8502786e+01 7.07e-02 2.32e-03  -5.7 3.45e-02    -  1.00e+00 1.00e+00h  1
 158  1.8502767e+01 1.06e-02 2.64e-04  -5.7 3.58e-02    -  1.00e+00 1.00e+00h  1
 159  1.8502763e+01 1.14e-01 4.08e-03  -5.7 5.27e-02    -  1.00e+00 1.00e+00h  1
iter    objective    inf_pr   inf_du lg(mu)  ||d||  lg(rg) alpha_du alpha_pr  ls
 160  1.8502674e+01 4.15e-02 5.77e-04  -5.7 7.71e-02    -  1.00e+00 1.00e+00h  1
 161  1.8502548e+01 4.39e-01 1.62e-02  -5.7 2.12e-01    -  1.00e+00 1.00e+00h  1
 162  1.8499940e+01 1.76e-01 5.29e-03  -5.7 3.49e-01    -  3.04e-01 1.00e+00h  1
 163  1.8501882e+01 5.30e-02 2.01e-03  -5.7 1.58e-01  -3.0 6.39e-01 1.00e+00h  1
 164  1.8503090e+01 7.84e-03 6.27e-03  -5.7 1.28e-01    -  6.30e-01 1.00e+00H  1
 165  1.8502943e+01 5.92e-03 5.06e-03  -5.7 2.57e-01    -  1.00e+00 2.50e-01h  3
 166  1.8503130e+01 4.75e-03 3.34e-03  -5.7 1.47e-01    -  7.05e-01 1.00e+00H  1
 167  1.8503046e+01 3.86e-03 1.96e-02  -5.7 5.79e-01    -  1.00e+00 5.15e-02h  4
 168  1.8502983e+01 8.67e-03 1.08e-02  -5.7 2.67e-01    -  1.00e+00 8.55e-02h  4
 169  1.8503002e+01 6.92e-03 5.03e-03  -5.7 1.12e-01    -  1.00e+00 1.00e+00H  1
iter    objective    inf_pr   inf_du lg(mu)  ||d||  lg(rg) alpha_du alpha_pr  ls
 170  1.8503095e+01 1.26e-03 2.53e-03  -5.7 1.89e-01    -  7.58e-01 1.00e+00H  1
 171  1.8503023e+01 2.69e-03 1.54e-02  -5.7 3.90e-01    -  1.00e+00 6.82e-02h  4
 172  1.8502954e+01 7.75e-03 1.04e-02  -5.7 2.64e-01    -  1.00e+00 1.01e-01h  4
 173  1.8502687e+01 8.29e-02 3.95e-03  -5.7 1.10e-01    -  1.00e+00 1.00e+00h  1
 174  1.8503077e+01 7.69e-04 1.71e-02  -5.7 1.53e-01    -  2.75e-01 1.00e+00H  1
 175  1.8503004e+01 2.86e-03 1.97e-02  -5.7 4.53e-01    -  1.00e+00 6.07e-02h  4
 176  1.8502934e+01 8.10e-03 2.16e-02  -5.7 2.21e-01    -  1.00e+00 1.25e-01h  4
 177  1.8502714e+01 6.21e-02 3.16e-03  -5.7 9.64e-02    -  1.00e+00 1.00e+00h  1
 178  1.8502879e+01 1.22e-02 1.76e-03  -5.7 9.31e-02    -  1.00e+00 1.00e+00H  1
 179  1.8502832e+01 1.93e-02 3.36e-03  -5.7 1.29e-01    -  1.00e+00 2.50e-01h  3
iter    objective    inf_pr   inf_du lg(mu)  ||d||  lg(rg) alpha_du alpha_pr  ls
 180  1.8502798e+01 8.71e-03 1.37e-03  -5.7 3.76e-02    -  1.00e+00 1.00e+00h  1
 181  1.8502835e+01 2.04e-03 4.17e-04  -5.7 3.53e-02    -  1.00e+00 1.00e+00H  1
 182  1.8502900e+01 1.61e-03 3.63e-03  -5.7 6.20e-02    -  1.00e+00 1.00e+00H  1
 183  1.8503068e+01 7.88e-04 2.53e-03  -5.7 1.54e-01    -  7.90e-01 1.00e+00H  1
 184  1.8503033e+01 6.28e-04 1.59e-02  -5.7 4.18e-01    -  1.00e+00 3.14e-02h  5
 185  1.8502996e+01 4.62e-04 1.15e-02  -5.7 3.10e-01    -  1.00e+00 4.61e-02h  5
 186  1.8502968e+01 4.54e-04 8.28e-03  -5.7 1.94e-01    -  1.00e+00 5.66e-02h  5
 187  1.8502923e+01 7.89e-04 6.10e-03  -5.7 1.36e-01    -  1.00e+00 1.25e-01h  4
 188  1.8502873e+01 1.01e-03 3.11e-03  -5.7 9.03e-02    -  1.00e+00 1.00e+00H  1
 189  1.8502762e+01 8.56e-02 2.08e-03  -5.7 1.21e-01    -  1.00e+00 1.00e+00h  1
iter    objective    inf_pr   inf_du lg(mu)  ||d||  lg(rg) alpha_du alpha_pr  ls
 190  1.8502695e+01 1.71e-01 7.54e-03  -5.7 1.63e-01    -  1.00e+00 1.00e+00h  1
 191  1.8502460e+01 1.06e-01 2.55e-03  -5.7 1.93e-01    -  8.90e-01 1.00e+00h  1
 192  1.8502315e+01 3.03e-01 1.12e-02  -5.7 3.95e-01    -  1.00e+00 4.45e-01h  1
 193  1.8501513e+01 1.21e-01 2.89e-03  -5.7 2.03e-01    -  7.09e-01 1.00e+00h  1
 194  1.8501346e+01 3.58e-01 1.30e-02  -5.7 9.02e-01    -  1.00e+00 2.03e-01h  1
 195  1.8500639e+01 1.32e-01 4.75e-03  -5.7 1.96e-01    -  6.88e-01 1.00e+00h  1
 196  1.8500293e+01 4.09e-01 3.38e-02  -5.7 2.41e+00    -  8.76e-01 8.16e-02h  1
 197  1.8499464e+01 1.36e-01 1.82e-02  -5.7 2.06e-01    -  5.36e-01 1.00e+00h  1
 198  1.8499993e+01 1.24e-01 7.62e-03  -5.7 3.59e-01  -3.5 1.00e+00 2.50e-01h  3
 199  1.8502374e+01 9.67e-02 4.55e-03  -5.7 1.28e-01    -  1.00e+00 1.00e+00h  1
iter    objective    inf_pr   inf_du lg(mu)  ||d||  lg(rg) alpha_du alpha_pr  ls
 200  1.8503350e+01 1.95e-04 2.62e-02  -5.7 1.93e-01    -  2.59e-01 1.00e+00H  1
 201  1.8503318e+01 2.11e-04 2.45e-02  -5.7 7.84e+01    -  1.32e-02 1.35e-04h  6
 202  1.8503272e+01 2.88e-04 2.51e-02  -5.7 8.77e+00    -  2.50e-01 1.83e-03h  5
 203  1.8503265e+01 2.89e-04 2.66e-02  -5.7 1.45e+00    -  3.63e-01 1.65e-03h  8
 204  1.8503258e+01 2.90e-04 3.71e-02  -5.7 1.03e+00    -  1.00e+00 1.97e-03h  8
 205  1.8502040e+01 8.63e-01 3.22e-02  -5.7 6.85e-01    -  1.00e+00 6.35e-01h  1
 206  1.8489537e+01 8.74e-02 3.56e-02  -5.7 4.76e-01    -  2.10e-01 1.00e+00h  1
 207  1.8490095e+01 8.59e-02 4.73e-02  -5.7 6.37e-01    -  1.00e+00 4.82e-02h  5
 208  1.8502418e+01 1.24e-01 5.81e-03  -5.7 1.87e-01    -  1.00e+00 1.00e+00h  1
 209  1.8503019e+01 2.04e-02 1.49e-02  -5.7 1.73e-01    -  4.04e-01 9.94e-01H  1
iter    objective    inf_pr   inf_du lg(mu)  ||d||  lg(rg) alpha_du alpha_pr  ls
 210  1.8502864e+01 4.59e-02 1.58e-02  -5.7 5.29e-01    -  1.00e+00 1.13e-01h  3
 211  1.8502653e+01 6.81e-02 3.44e-03  -5.7 8.85e-02    -  1.00e+00 1.00e+00h  1
 212  1.8503216e+01 4.76e-03 2.08e-02  -5.7 1.61e-01    -  2.60e-01 1.00e+00H  1
 213  1.8503100e+01 3.24e-03 2.04e-02  -5.7 1.21e+00    -  7.66e-01 3.28e-02h  4
 214  1.8503030e+01 7.63e-03 2.48e-02  -5.7 4.25e-01    -  1.00e+00 5.79e-02h  4
 215  1.8502596e+01 1.17e-01 5.55e-03  -5.7 1.31e-01    -  1.00e+00 1.00e+00h  1
 216  1.8502952e+01 1.90e-02 7.71e-03  -5.7 1.56e-01    -  5.18e-01 1.00e+00H  1
 217  1.8502850e+01 3.47e-02 9.59e-03  -5.7 2.92e-01    -  1.00e+00 1.62e-01h  3
 218  1.8502722e+01 7.12e-02 3.53e-03  -5.7 7.38e-02    -  1.00e+00 1.00e+00h  1
 219  1.8503217e+01 9.36e-04 2.11e-02  -5.7 1.63e-01    -  2.74e-01 1.00e+00H  1
iter    objective    inf_pr   inf_du lg(mu)  ||d||  lg(rg) alpha_du alpha_pr  ls
 220  1.8503107e+01 2.98e-03 2.08e-02  -5.7 1.14e+00    -  8.30e-01 3.35e-02h  4
 221  1.8503032e+01 4.73e-03 2.47e-02  -5.7 4.00e-01    -  1.00e+00 6.55e-02h  4
 222  1.8503022e+01 2.04e-02 5.18e-03  -5.7 1.33e-01    -  1.00e+00 1.00e+00H  1
 223  1.8503017e+01 4.56e-03 2.34e-03  -5.7 1.76e-01    -  7.75e-01 1.00e+00H  1
 224  1.8502581e+01 3.33e-01 1.37e-02  -5.7 3.05e-01    -  1.00e+00 6.90e-01h  1
 225  1.8501112e+01 1.78e-01 6.42e-03  -5.7 3.28e-01    -  2.09e-01 1.00e+00h  1
 226  1.8500739e+01 2.67e-01 1.69e-02  -5.7 2.05e+02    -  7.36e-03 6.23e-04h  1
 227  1.8501357e+01 1.64e-02 1.29e-02  -5.7 1.56e-01    -  3.18e-01 1.00e+00h  1
 228  1.8501437e+01 1.54e-02 8.31e-03  -5.7 1.90e-01    -  4.99e-01 6.25e-02h  5
 229  1.8502829e+01 1.12e-02 1.27e-03  -5.7 2.79e-02    -  1.00e+00 1.00e+00h  1
iter    objective    inf_pr   inf_du lg(mu)  ||d||  lg(rg) alpha_du alpha_pr  ls
 230  1.8502820e+01 2.74e-02 1.96e-03  -5.7 2.55e-02    -  1.00e+00 1.00e+00h  1
 231  1.8502915e+01 1.89e-03 1.94e-03  -5.7 1.01e-01    -  8.74e-01 1.00e+00H  1
 232  1.8503159e+01 1.10e-03 6.84e-03  -5.7 1.48e-01    -  1.00e+00 1.00e+00H  1
 233  1.8503670e+01 3.85e-04 8.42e-03  -5.7 2.88e-01    -  4.79e-01 1.00e+00H  1
 234  1.8503558e+01 5.48e-04 4.08e-02  -5.7 1.81e+00  -4.0 8.14e-01 1.68e-02h  4
 235  1.8503534e+01 5.97e-04 2.57e-02  -5.7 4.63e+00  -4.4 3.94e-01 1.70e-03h  6
 236  1.8503521e+01 6.08e-04 4.06e-02  -5.7 1.89e+00    -  3.94e-01 2.03e-03h  8
 237  1.8503500e+01 6.30e-04 1.44e-02  -5.7 1.05e+00    -  1.00e+00 5.33e-03h  7
 238  1.8503492e+01 6.30e-04 3.05e-02  -5.7 5.71e-01    -  1.00e+00 3.11e-03h  9
 239  1.8501706e+01 9.09e-01 3.39e-02  -5.7 5.49e-01    -  1.00e+00 8.43e-01h  1
iter    objective    inf_pr   inf_du lg(mu)  ||d||  lg(rg) alpha_du alpha_pr  ls
 240  1.8496214e+01 4.08e-01 2.36e-02  -5.7 5.44e-01    -  1.45e-01 5.21e-01h  1
 241  1.8499352e+01 9.09e-02 5.03e-03  -5.7 2.12e-01    -  4.64e-01 1.00e+00h  1
 242  1.8499429e+01 8.74e-02 1.42e-02  -5.7 5.58e-01    -  1.00e+00 3.70e-02h  5
 243  1.8502123e+01 5.58e-02 2.78e-02  -5.7 3.29e-01    -  1.49e-01 3.25e-01H  1
 244  1.8502826e+01 3.19e-02 9.65e-03  -5.7 2.22e-01    -  6.94e-01 6.59e-01H  1
 245  1.8502741e+01 1.85e-02 1.61e-02  -5.7 5.57e-01    -  1.00e+00 5.66e-02h  4
 246  1.8502611e+01 8.48e-03 1.65e-03  -5.7 1.49e-01    -  1.00e+00 8.66e-01h  1
 247  1.8502822e+01 2.13e-04 4.43e-04  -5.7 1.78e-02    -  1.00e+00 1.00e+00h  1
 248  1.8502824e+01 3.65e-04 1.89e-05  -5.7 1.72e-02    -  1.00e+00 1.00e+00h  1
 249  1.8502825e+01 6.89e-06 3.19e-07  -5.7 6.12e-04    -  1.00e+00 1.00e+00h  1
iter    objective    inf_pr   inf_du lg(mu)  ||d||  lg(rg) alpha_du alpha_pr  ls
 250  1.8502641e+01 2.46e-05 3.55e-04  -7.0 2.01e-02    -  1.00e+00 9.27e-01h  1
 251  1.8502627e+01 2.39e-06 9.98e-08  -7.0 5.94e-03    -  1.00e+00 1.00e+00f  1
 252  1.8502627e+01 1.00e-07 7.78e-09  -7.0 9.91e-04    -  1.00e+00 1.00e+00h  1

Number of Iterations....: 252

                                   (scaled)                 (unscaled)
Objective...............:   1.8502626747947716e+01    1.8502626747947716e+01
Dual infeasibility......:   7.7834510119122007e-09    7.7834510119122007e-09
Constraint violation....:   1.0031116470798906e-07    1.0031116470798906e-07
Variable bound violation:   0.0000000000000000e+00    0.0000000000000000e+00
Complementarity.........:   1.0266332154075161e-07    1.0266332154075161e-07
Overall NLP error.......:   1.0266332154075161e-07    1.0266332154075161e-07


Number of objective function evaluations             = 570
Number of objective gradient evaluations             = 253
Number of equality constraint evaluations            = 570
Number of inequality constraint evaluations          = 570
Number of equality constraint Jacobian evaluations   = 253
Number of inequality constraint Jacobian evaluations = 253
Number of Lagrangian Hessian evaluations             = 252
Total seconds in IPOPT                               = 53.796

EXIT: Optimal Solution Found.
      solver  :   t_proc      (avg)   t_wall      (avg)    n_eval
       nlp_f  |  22.65ms ( 39.74us)  22.72ms ( 39.86us)       570
       nlp_g  |   3.02 s (  5.30ms)   3.03 s (  5.32ms)       570
  nlp_grad_f  |  16.68ms ( 65.67us)  16.77ms ( 66.01us)       254
  nlp_hess_l  |  36.50 s (144.84ms)  36.65 s (145.45ms)       252
   nlp_jac_g  |   9.69 s ( 38.16ms)   9.73 s ( 38.33ms)       254
       total  |  53.57 s ( 53.57 s)  53.80 s ( 53.80 s)         1
  Success: True
  Cost: 18.5026
  Iterations: 252
  Solve time: 73.77 s
  Max obstacle slack: 0.0000e+00
  Min obstacle clearance: inf m
  Accepted: True

Accepted attempt: baseline

Generating plots...
  Saved: /run/media/saveas/Secondary-Storage/Masters/CS234/CS234_Reinforcement_Learning/Final Project/CS234_Final_Project/results/trajectory_optimization/nlp/TRACK3_300m/N200/ipopt_single_stage_trajectory.png
  Saved: /run/media/saveas/Secondary-Storage/Masters/CS234/CS234_Reinforcement_Learning/Final Project/CS234_Final_Project/results/trajectory_optimization/nlp/TRACK3_300m/N200/ipopt_single_stage_states.png
  Saved: /run/media/saveas/Secondary-Storage/Masters/CS234/CS234_Reinforcement_Learning/Final Project/CS234_Final_Project/results/trajectory_optimization/nlp/TRACK3_300m/N200/ipopt_single_stage_controls.png

Generating animation...
  Saved: /run/media/saveas/Secondary-Storage/Masters/CS234/CS234_Reinforcement_Learning/Final Project/CS234_Final_Project/results/trajectory_optimization/nlp/TRACK3_300m/N200/ipopt_single_stage_animation.gif

======================================================================
SUMMARY
======================================================================
Selected attempt: baseline
Attempt                    N      Subs   Clear    Iters    Time [s]   Cost [s]   Max Sigma    Min Clear [m]  Accepted
-----------------------------------------------------------------------------------------------------------------------------
baseline                   200    7      0.000    252      73.77      18.5026    0.000e+00    inf            True

All outputs saved to: /run/media/saveas/Secondary-Storage/Masters/CS234/CS234_Reinforcement_Learning/Final Project/CS234_Final_Project/results/trajectory_optimization/nlp/TRACK3_300m/N200
